p tdp 58 57
56 6
20 8
27 4
19 10
14 10
30 52
27 29
46 2
54 22
25 35
2 3
24 55
13 33
18 57
45 13
50 41
39 36
38 20
56 43
1 14
14 51
4 58
17 11
46 41
40 19
27 9
12 48
47 44
39 27
52 31
4 31
40 6
19 53
51 32
11 6
45 34
54 24
49 21
4 22
16 49
50 18
37 25
7 8
44 37
7 28
12 33
33 5
55 15
21 42
44 38
28 41
19 49
5 49
26 39
10 23
17 52
34 7
